experiments/solvers_scalability/solutions/scalability/imx8a/IN_15_7.json-QP-LR-UB.out.log
Tasks lengths
[51, 52, 54, 82, 87, 87, 96, 104, 110, 128, 132, 133, 135, 143, 149, 153, 154, 155, 155, 158, 165, 231, 254, 303, 323, 350, 368, 420, 490, 503]
9
Using license file /home/benedond/gurobi.lic
Using gurobi.env file
Set parameter Threads to value 1
Academic license - for non-commercial use only
Changed value of parameter TimeLimit to 300.0
   Prev: inf  Min: 0.0  Max: inf  Default: inf
Gurobi Optimizer version 9.0.1 build v9.0.1rc0 (linux64)
Optimize a model with 312 rows, 279 columns and 1105 nonzeros
Model fingerprint: 0x6da7a242
Model has 270 quadratic objective terms
Variable types: 9 continuous, 270 integer (270 binary)
Coefficient statistics:
  Matrix range     [1e+00, 5e+02]
  Objective range  [0e+00, 0e+00]
  QObjective range [7e-04, 6e-03]
  Bounds range     [1e+00, 1e+00]
  RHS range        [1e+00, 8e+02]
Presolve removed 123 rows and 119 columns
Presolve time: 0.02s
Presolved: 340 rows, 311 columns, 1076 nonzeros
Variable types: 0 continuous, 311 integer (151 binary)
Found heuristic solution: objective 4.0823196

Root relaxation: objective 0.000000e+00, 90 iterations, 0.00 seconds

    Nodes    |    Current Node    |     Objective Bounds      |     Work
 Expl Unexpl |  Obj  Depth IntInf | Incumbent    BestBd   Gap | It/Node Time

     0     0    0.00000    0   40    4.08232    0.00000   100%     -    0s
     0     0    0.00000    0   43    4.08232    0.00000   100%     -    0s
H    0     0                       3.9363637    0.00000   100%     -    0s
     0     0    0.00000    0   41    3.93636    0.00000   100%     -    0s
     0     0    0.00000    0   35    3.93636    0.00000   100%     -    0s
     0     0    1.87773    0   57    3.93636    1.87773  52.3%     -    0s
     0     0    1.90004    0   45    3.93636    1.90004  51.7%     -    0s
     0     0    2.46760    0   63    3.93636    2.46760  37.3%     -    0s
     0     0    2.46760    0   63    3.93636    2.46760  37.3%     -    0s
     0     2    2.49047    0   58    3.93636    2.49047  36.7%     -    0s
H   27    27                       3.8314697    2.51439  34.4%  41.9    0s
H   54    42                       3.7372162    2.51439  32.7%  35.3    0s
H  128    82                       3.6021816    2.55817  29.0%  31.7    0s
H  135    83                       3.4799441    2.55817  26.5%  30.1    0s
H  330   170                       3.4608036    2.66383  23.0%  25.4    0s
H  441   206                       3.4606941    2.72975  21.1%  24.8    0s
* 4551   369              46       3.4436124    3.34980  2.72%  15.6    3s
* 4554   368              47       3.4424138    3.34980  2.69%  15.6    3s
H 4590   283                       3.4240225    3.35424  2.04%  15.6    3s
* 4822   152              44       3.4186371    3.38036  1.12%  15.5    3s

Cutting planes:
  Gomory: 4
  Cover: 5
  Implied bound: 150
  Projected implied bound: 8
  MIR: 18
  StrongCG: 6
  Flow cover: 75
  GUB cover: 6
  Zero half: 1
  Mod-K: 1
  RLT: 13
  Relax-and-lift: 13

Explored 5040 nodes (78117 simplex iterations) in 3.76 seconds
Thread count was 1 (of 4 available processors)

Solution count 10: 3.41864 3.42402 3.44241 ... 3.83147

Optimal solution found (tolerance 1.00e-04)
Best objective 3.418637110418e+00, best bound 3.418586968063e+00, gap 0.0015%
